words_hard_train/2646.qaiger
aag 96 16 0 1 80
2
4
8
12
20
38
48
64
68
72
76
80
88
92
96
102
192
6 3 5
10 4 8
14 10 12
16 11 13
18 15 17
22 19 21
24 18 20
26 23 25
28 6 26
30 2 4
32 27 30
34 29 33
36 17 8
40 36 38
42 37 39
44 41 43
46 2 20
50 47 49
52 46 48
54 51 53
56 44 55
58 45 54
60 57 59
62 35 61
66 53 65
70 66 69
74 71 72
78 74 76
82 78 81
84 79 80
86 83 85
90 42 89
94 90 93
98 94 97
100 98 8
104 100 103
106 86 104
108 62 107
110 67 68
112 111 71
114 113 92
116 112 93
118 115 117
120 91 8
122 118 121
124 119 120
126 123 125
128 87 105
130 127 129
132 108 130
134 75 77
136 135 79
138 137 102
140 136 103
142 139 141
144 99 8
146 143 144
148 142 145
150 147 149
152 70 73
154 153 75
156 155 96
158 154 97
160 157 159
162 95 8
164 161 163
166 160 162
168 165 167
170 52 64
172 171 67
174 173 88
176 172 89
178 175 177
180 43 8
182 179 181
184 178 180
186 183 185
188 169 186
190 150 188
192 132 190
i0 2 y2[0]
i1 1 x2[0]
i2 1 x2[7]
i3 1 x2[1]
i4 2 y2[1]
i5 1 x2[2]
i6 2 y2[2]
i7 2 y2[3]
i8 2 y2[4]
i9 2 y2[5]
i10 2 y2[6]
i11 2 y2[7]
i12 1 x2[3]
i13 1 x2[4]
i14 1 x2[5]
i15 1 x2[6]
o0 bool[0]
c
simplified
  ==
    abs
      1 x2
    subtract
      -153
      add
        2 y2
        1
