words_hard_train/2646.qaiger.qdimacs
p cnf 96 241
a 2 4 6 44 46 48 19 51 0
e 1 3 5 7 8 9 10 11 12 13 14 15 16 17 18 20 21 22 23 24 25 26 27 28 29 30 31 32 33 34 35 36 37 38 39 40 41 42 43 45 47 49 50 52 53 54 55 56 57 58 59 60 61 62 63 64 65 66 67 68 69 70 71 72 73 74 75 76 77 78 79 80 81 82 83 84 85 86 87 88 89 90 91 92 93 94 95 96 0
1 2 3 0
-1 -3 0
-2 -3 0
-2 -4 5 0
2 -5 0
4 -5 0
-5 -6 7 0
5 -7 0
6 -7 0
5 6 8 0
-5 -8 0
-6 -8 0
7 8 9 0
-7 -9 0
-8 -9 0
9 10 11 0
-9 -11 0
-10 -11 0
-9 -10 12 0
9 -12 0
10 -12 0
11 12 13 0
-11 -13 0
-12 -13 0
-3 -13 14 0
3 -14 0
13 -14 0
-1 -2 15 0
1 -15 0
2 -15 0
13 -15 16 0
-13 -16 0
15 -16 0
14 16 17 0
-14 -17 0
-16 -17 0
8 -4 18 0
-8 -18 0
4 -18 0
-18 -19 20 0
18 -20 0
19 -20 0
18 19 21 0
-18 -21 0
-19 -21 0
20 21 22 0
-20 -22 0
-21 -22 0
-1 -10 23 0
1 -23 0
10 -23 0
23 24 25 0
-23 -25 0
-24 -25 0
-23 -24 26 0
23 -26 0
24 -26 0
25 26 27 0
-25 -27 0
-26 -27 0
-22 27 28 0
22 -28 0
-27 -28 0
22 -27 29 0
-22 -29 0
27 -29 0
28 29 30 0
-28 -30 0
-29 -30 0
17 30 31 0
-17 -31 0
-30 -31 0
26 32 33 0
-26 -33 0
-32 -33 0
-33 34 35 0
33 -35 0
-34 -35 0
35 -36 37 0
-35 -37 0
36 -37 0
-37 -38 39 0
37 -39 0
38 -39 0
-39 40 41 0
39 -41 0
-40 -41 0
39 -40 42 0
-39 -42 0
40 -42 0
41 42 43 0
-41 -43 0
-42 -43 0
-21 44 45 0
21 -45 0
-44 -45 0
-45 46 47 0
45 -47 0
-46 -47 0
-47 48 49 0
47 -49 0
-48 -49 0
-49 -4 50 0
49 -50 0
4 -50 0
-50 51 52 0
50 -52 0
-51 -52 0
-43 -52 53 0
43 -53 0
52 -53 0
-31 53 54 0
31 -54 0
-53 -54 0
33 -34 55 0
-33 -55 0
34 -55 0
55 35 56 0
-55 -56 0
-35 -56 0
56 -46 57 0
-56 -57 0
46 -57 0
-56 46 58 0
56 -58 0
-46 -58 0
57 58 59 0
-57 -59 0
-58 -59 0
45 -4 60 0
-45 -60 0
4 -60 0
-59 60 61 0
59 -61 0
-60 -61 0
59 -60 62 0
-59 -62 0
60 -62 0
61 62 63 0
-61 -63 0
-62 -63 0
43 52 64 0
-43 -64 0
-52 -64 0
63 64 65 0
-63 -65 0
-64 -65 0
-54 -65 66 0
54 -66 0
65 -66 0
37 38 67 0
-37 -67 0
-38 -67 0
67 39 68 0
-67 -68 0
-39 -68 0
68 -51 69 0
-68 -69 0
51 -69 0
-68 51 70 0
68 -70 0
-51 -70 0
69 70 71 0
-69 -71 0
-70 -71 0
49 -4 72 0
-49 -72 0
4 -72 0
71 -72 73 0
-71 -73 0
72 -73 0
-71 72 74 0
71 -74 0
-72 -74 0
73 74 75 0
-73 -75 0
-74 -75 0
-35 36 76 0
35 -76 0
-36 -76 0
76 37 77 0
-76 -77 0
-37 -77 0
77 -48 78 0
-77 -78 0
48 -78 0
-77 48 79 0
77 -79 0
-48 -79 0
78 79 80 0
-78 -80 0
-79 -80 0
47 -4 81 0
-47 -81 0
4 -81 0
80 81 82 0
-80 -82 0
-81 -82 0
-80 -81 83 0
80 -83 0
81 -83 0
82 83 84 0
-82 -84 0
-83 -84 0
-26 -32 85 0
26 -85 0
32 -85 0
85 33 86 0
-85 -86 0
-33 -86 0
86 -44 87 0
-86 -87 0
44 -87 0
-86 44 88 0
86 -88 0
-44 -88 0
87 88 89 0
-87 -89 0
-88 -89 0
21 -4 90 0
-21 -90 0
4 -90 0
89 90 91 0
-89 -91 0
-90 -91 0
-89 -90 92 0
89 -92 0
90 -92 0
91 92 93 0
-91 -93 0
-92 -93 0
84 -93 94 0
-84 -94 0
93 -94 0
-75 -94 95 0
75 -95 0
94 -95 0
-66 -95 96 0
66 -96 0
95 -96 0
96 0
